(define-fun inv2 ((x!0 Int) (x!1 Int) (x!2 Int) (x!3 Int) (x!4 Int) (x!5 Int)) Bool
  (let ((a!1 (not (>= (+ (* 8 x!1) (* (- 1) x!2)) (- 7))))
        (a!2 (not (>= (mod (* 8 x!0) 16) 1)))
        (a!3 (not (>= (+ (* 4 x!1) (* (- 1) x!2)) (- 7))))
        (a!4 (not (>= (mod (* 4 x!0) 16) 1)))
        (a!5 (not (>= (+ (* 2 x!1) (* (- 1) x!2)) (- 1))))
        (a!6 (not (>= (mod (* 2 x!0) 16) 1)))
        (a!7 (not (>= (+ x!1 (* (- 1) x!2)) 0)))
        (a!9 (not (<= (+ (* 8 x!1) (* (- 1) x!2)) (- 1))))
        (a!10 (not (>= (+ (* 16 x!0) (* (- 1) x!2)) 1)))
        (a!11 (not (>= (+ (* 8 x!0) (* (- 1) x!2)) 1)))
        (a!12 (not (<= (+ (* 4 x!1) (* (- 1) x!2)) (- 1))))
        (a!13 (not (>= (+ (* 4 x!0) (* (- 1) x!2)) 1)))
        (a!14 (not (<= (+ (* 2 x!1) (* (- 1) x!2)) (- 1)))))
  (let ((a!8 (or (not (>= (mod x!0 16) 1)) a!7)))
    (and (or (not (>= x!1 1)) (not (>= x!2 17)))
         (not (<= x!1 (- 1)))
         (not (<= x!2 15))
         (or a!1 a!2)
         (or a!3 a!4)
         (or a!5 a!6)
         a!8
         (or (not (>= x!0 17)) (not (>= x!1 1)))
         (or (not (>= x!1 1)) a!9 a!10)
         (or (not (>= x!1 1)) a!11 a!12)
         (or (not (>= x!1 1)) a!13 a!14)
         (or (not (>= x!1 1))
             (not (<= x!2 16))
             (not (>= x!0 9))
             (not (<= x!1 15)))))))

